1 856 5
2 822 5
3 758 5
5 738 5
10 714 5
13 711 5
24 697 5
31 694 5
115 687 5
370 682 5
388 681 5
444 680 5
515 679 5



1 842 5
2 782 5
3 739 5
8 734 5
16 732 5
20 718 5
26 715 5
27 708 5
29 701 5
34 700 5
39 681 5
726 680 5



1 877 5
2 790 5
3 740 5
8 739 5
10 736 5
11 730 5
25 710 5
30 701 5
33 691 5
215 687 5
485 685 5
663 683 5



1 895 5
2 783 5
3 737 5
5 709 5
15 701 5
39 690 5
83 683 5
167 682 5
192 678 5



1 877 5
2 810 5
3 775 5
4 767 5
5 756 5
10 735 5
15 708 5
47 704 5
62 679 5



